container_length = 52;
container_width = 33;
container_height = 16;
n = 6;
boxes = [|3, 3, 3, 31
         |9, 3, 3, 12
         |4, 4, 1, 25
         |15,2, 2, 17
         |5, 4, 3, 13
         |2, 2, 3, 22|];
